instances/p2/p2_10_13-0.dzn
Alphabet = {A,C,G,T};
ns = 10;
nc = 11;
neighbours = [| I(A),I(A),I(G),I(G),I(C),I(C),I(T),I(A),I(A),I(C),I(A) | I(T),I(C),I(C),I(T),I(A),I(G),I(G),I(T),Null,Null,Null | I(A),I(A),I(C),Null,Null,Null,Null,Null,Null,Null,Null | I(T),I(A),I(A),I(T),I(C),I(T),I(A),I(T),I(G),I(G),Null | I(G),I(T),I(G),I(A),I(C),I(A),I(C),Null,Null,Null,Null | I(C),I(A),I(A),I(T),I(G),I(A),Null,Null,Null,Null,Null | I(G),I(A),I(A),I(G),I(G),I(G),I(A),I(C),I(A),I(A),Null | I(T),I(C),I(T),I(A),I(C),Null,Null,Null,Null,Null,Null | I(A),I(G),I(T),Null,Null,Null,Null,Null,Null,Null,Null | I(G),I(T),I(T),I(G),I(A),I(T),I(T),I(T),Null,Null,Null |];
